tsp_component/tsp_opt_sols/eil101.opt.tsp.log
Default Edge Length: 9393
CCtsp_solve_dat ...
Set initial upperbound to 700 (from tour)
Upperbound from x-heuristic: 699.00
Exact lower bound: 699.000000
DIFF: 0.000000
Established Bound: 699
Optimal tour: 699
Total Time to solve TSP: 0.61
