tsp_component/tsp_opt_sols/eil101.opt.tsp.sol
NAME : eil101
COMMENT :  optimal TSP tour (length = 699)
TYPE : TOUR CEIL_2D
DIMENSION : 101
TOUR_SECTION
1
50
76
12
80
68
77
3
79
33
81
9
51
20
66
65
71
35
34
78
29
24
54
55
25
4
39
67
23
56
75
41
22
74
72
73
21
40
26
28
27
101
53
58
13
94
95
97
87
2
57
15
43
42
14
44
38
86
16
61
85
91
100
37
98
92
59
93
99
96
6
89
52
18
83
60
5
84
17
45
8
46
47
36
49
64
63
90
32
30
70
10
62
11
19
48
82
7
88
31
69
-1
EOF
